c This is QMaxSAT 2017 based on 14.07
c This is Glucose 3.0
c This is MiniSat 2.2.0
c WARNING: for repeatability, setting FPU to use double precision
c card = mrwto, comp = 0, pmodel = 0, narr = 32, mct = 152, verb = 0
cr firstCPXsol 0 0 0
c top = 158709225
c |  Number of variables:    66978                                            |
c |  Number of clauses:      10871913                                         |
c |  Weight of hard clauses: 158709225                                        |
c |  Number of soft clauses: 1034048                                          |
c |  Number of unit soft clauses: 0                                           |
c |  Maximum Cardinality (by unit): 7790948160   (0           )               |
c last restart ## conflicts  :  0 3838 
o 52308 | cpuTime 1.15212 s
c Sum of weights = 243467130
c A number of soft clauses remained = 32314
c MRWTO encoding for Pseudo-Boolean Constraints
c sizeMax=52308
c No.0 Divisor=16	generated by pow1
c No.1 Divisor=15	generated by pow1
c No.2 Divisor=16	generated by pow1
c No.3 Divisor=16	generated by pow1
c p0= 16	p1= 15	p2= 16	p3= 16	
c number of digits = 5
c linkingVar[0].size = 16, linkingVar[1].size = 15, linkingVar[2].size = 16, linkingVar[3].size = 14, linkingVar[4].size = 1, 
c Pseudo-Boolean Constraints: 1193874 variables and 16729588 clauses
c Sum of weights = 243467130
c A number of soft clauses remained = 32314
c MRWTO encoding for Pseudo-Boolean Constraints
c sizeMax=52308
c No.0 Divisor=16	generated by pow1
c No.1 Divisor=15	generated by pow1
c No.2 Divisor=16	generated by pow1
c No.3 Divisor=16	generated by pow1
c p0= 16	p1= 15	p2= 16	p3= 16	
c number of digits = 5
c linkingVar[0].size = 16, linkingVar[1].size = 15, linkingVar[2].size = 16, linkingVar[3].size = 14, linkingVar[4].size = 1, 
c Pseudo-Boolean Constraints: 1193874 variables and 16729588 clauses
c Sum of weights = 243467130
c A number of soft clauses remained = 32314
c MRWTO encoding for Pseudo-Boolean Constraints
c sizeMax=52308
c No.0 Divisor=16	generated by pow1
c No.1 Divisor=15	generated by pow1
c No.2 Divisor=16	generated by pow1
c No.3 Divisor=16	generated by pow1
c p0= 16	p1= 15	p2= 16	p3= 16	
c number of digits = 5
c linkingVar[0].size = 16, linkingVar[1].size = 15, linkingVar[2].size = 16, linkingVar[3].size = 14, linkingVar[4].size = 1, 
c Pseudo-Boolean Constraints: 1193874 variables and 16729588 clauses
c Sum of weights = 243467130
c A number of soft clauses remained = 32314
c MRWTO encoding for Pseudo-Boolean Constraints
c sizeMax=52308
c No.0 Divisor=16	generated by pow1
c No.1 Divisor=15	generated by pow1
c No.2 Divisor=16	generated by pow1
c No.3 Divisor=16	generated by pow1
c p0= 16	p1= 15	p2= 16	p3= 16	
c number of digits = 5
c linkingVar[0].size = 16, linkingVar[1].size = 15, linkingVar[2].size = 16, linkingVar[3].size = 14, linkingVar[4].size = 1, 
c Pseudo-Boolean Constraints: 1193874 variables and 16729588 clauses
c Sum of weights = 243467130
c A number of soft clauses remained = 32314
c MRWTO encoding for Pseudo-Boolean Constraints
c sizeMax=52308
c No.0 Divisor=16	generated by pow1
c No.1 Divisor=15	generated by pow1
c No.2 Divisor=16	generated by pow1
c No.3 Divisor=16	generated by pow1
c p0= 16	p1= 15	p2= 16	p3= 16	
c number of digits = 5
c linkingVar[0].size = 16, linkingVar[1].size = 15, linkingVar[2].size = 16, linkingVar[3].size = 14, linkingVar[4].size = 1, 
c Pseudo-Boolean Constraints: 1193874 variables and 16729588 clauses
c Sum of weights = 243467130
c A number of soft clauses remained = 32314
c MRWTO encoding for Pseudo-Boolean Constraints
c sizeMax=52308
c No.0 Divisor=16	generated by pow1
c No.1 Divisor=15	generated by pow1
c No.2 Divisor=16	generated by pow1
c No.3 Divisor=16	generated by pow1
c p0= 16	p1= 15	p2= 16	p3= 16	
c number of digits = 5
c linkingVar[0].size = 16, linkingVar[1].size = 15, linkingVar[2].size = 16, linkingVar[3].size = 14, linkingVar[4].size = 1, 
c Pseudo-Boolean Constraints: 1193874 variables and 16729588 clauses
c Sum of weights = 243467130
c A number of soft clauses remained = 32314
c MRWTO encoding for Pseudo-Boolean Constraints
c sizeMax=52308
c No.0 Divisor=16	generated by pow1
c No.1 Divisor=15	generated by pow1
c No.2 Divisor=16	generated by pow1
c No.3 Divisor=16	generated by pow1
c p0= 16	p1= 15	p2= 16	p3= 16	
c number of digits = 5
c linkingVar[0].size = 16, linkingVar[1].size = 15, linkingVar[2].size = 16, linkingVar[3].size = 14, linkingVar[4].size = 1, 
c Pseudo-Boolean Constraints: 1193874 variables and 16729588 clauses
c Sum of weights = 243467130
c A number of soft clauses remained = 32314
c MRWTO encoding for Pseudo-Boolean Constraints
c sizeMax=52308
c No.0 Divisor=16	generated by pow1
c No.1 Divisor=15	generated by pow1
c No.2 Divisor=16	generated by pow1
c No.3 Divisor=16	generated by pow1
c p0= 16	p1= 15	p2= 16	p3= 16	
c number of digits = 5
c linkingVar[0].size = 16, linkingVar[1].size = 15, linkingVar[2].size = 16, linkingVar[3].size = 14, linkingVar[4].size = 1, 
c Pseudo-Boolean Constraints: 1193874 variables and 16729588 clauses
c Sum of weights = 243467130
c A number of soft clauses remained = 32314
c MRWTO encoding for Pseudo-Boolean Constraints
c sizeMax=52308
c No.0 Divisor=16	generated by pow1
c No.1 Divisor=15	generated by pow1
c No.2 Divisor=16	generated by pow1
c No.3 Divisor=16	generated by pow1
c p0= 16	p1= 15	p2= 16	p3= 16	
c number of digits = 5
c linkingVar[0].size = 16, linkingVar[1].size = 15, linkingVar[2].size = 16, linkingVar[3].size = 14, linkingVar[4].size = 1, 
c Pseudo-Boolean Constraints: 1193874 variables and 16729588 clauses
c Sum of weights = 243467130
c A number of soft clauses remained = 32314
c MRWTO encoding for Pseudo-Boolean Constraints
c sizeMax=52308
c No.0 Divisor=16	generated by pow1
c No.1 Divisor=15	generated by pow1
c No.2 Divisor=16	generated by pow1
c No.3 Divisor=16	generated by pow1
c p0= 16	p1= 15	p2= 16	p3= 16	
c number of digits = 5
c linkingVar[0].size = 16, linkingVar[1].size = 15, linkingVar[2].size = 16, linkingVar[3].size = 14, linkingVar[4].size = 1, 
c Pseudo-Boolean Constraints: 1193874 variables and 16729588 clauses
c Sum of weights = 243467130
c A number of soft clauses remained = 32314
c MRWTO encoding for Pseudo-Boolean Constraints
c sizeMax=52308
c No.0 Divisor=16	generated by pow1
c No.1 Divisor=15	generated by pow1
c No.2 Divisor=16	generated by pow1
c No.3 Divisor=16	generated by pow1
c p0= 16	p1= 15	p2= 16	p3= 16	
c number of digits = 5
c linkingVar[0].size = 16, linkingVar[1].size = 15, linkingVar[2].size = 16, linkingVar[3].size = 14, linkingVar[4].size = 1, 
c Pseudo-Boolean Constraints: 1193874 variables and 16729588 clauses
c Sum of weights = 243467130
c A number of soft clauses remained = 32314
c MRWTO encoding for Pseudo-Boolean Constraints
c sizeMax=52308
c No.0 Divisor=16	generated by pow1
c No.1 Divisor=15	generated by pow1
c No.2 Divisor=16	generated by pow1
c No.3 Divisor=16	generated by pow1
c p0= 16	p1= 15	p2= 16	p3= 16	
c number of digits = 5
c linkingVar[0].size = 16, linkingVar[1].size = 15, linkingVar[2].size = 16, linkingVar[3].size = 14, linkingVar[4].size = 1, 
c Pseudo-Boolean Constraints: 1193874 variables and 16729588 clauses
c Sum of weights = 243467130
c A number of soft clauses remained = 32314
c MRWTO encoding for Pseudo-Boolean Constraints
c sizeMax=52308
c No.0 Divisor=16	generated by pow1
c No.1 Divisor=15	generated by pow1
c No.2 Divisor=16	generated by pow1
c No.3 Divisor=16	generated by pow1
c p0= 16	p1= 15	p2= 16	p3= 16	
c number of digits = 5
c linkingVar[0].size = 16, linkingVar[1].size = 15, linkingVar[2].size = 16, linkingVar[3].size = 14, linkingVar[4].size = 1, 
c Pseudo-Boolean Constraints: 1193874 variables and 16729588 clauses
c Sum of weights = 243467130
c A number of soft clauses remained = 32314
c MRWTO encoding for Pseudo-Boolean Constraints
c sizeMax=52308
c No.0 Divisor=16	generated by pow1
c No.1 Divisor=15	generated by pow1
c No.2 Divisor=16	generated by pow1
c No.3 Divisor=16	generated by pow1
c p0= 16	p1= 15	p2= 16	p3= 16	
c number of digits = 5
c linkingVar[0].size = 16, linkingVar[1].size = 15, linkingVar[2].size = 16, linkingVar[3].size = 14, linkingVar[4].size = 1, 
c Pseudo-Boolean Constraints: 1193874 variables and 16729588 clauses
c Sum of weights = 243467130
c A number of soft clauses remained = 32314
c MRWTO encoding for Pseudo-Boolean Constraints
c sizeMax=52308
c No.0 Divisor=16	generated by pow1
c No.1 Divisor=15	generated by pow1
c No.2 Divisor=16	generated by pow1
c No.3 Divisor=16	generated by pow1
c p0= 16	p1= 15	p2= 16	p3= 16	
c number of digits = 5
c linkingVar[0].size = 16, linkingVar[1].size = 15, linkingVar[2].size = 16, linkingVar[3].size = 14, linkingVar[4].size = 1, 
c Pseudo-Boolean Constraints: 1193874 variables and 16729588 clauses
c Sum of weights = 243467130
c A number of soft clauses remained = 32314
c MRWTO encoding for Pseudo-Boolean Constraints
c sizeMax=52308
c No.0 Divisor=16	generated by pow1
c No.1 Divisor=15	generated by pow1
c No.2 Divisor=16	generated by pow1
c No.3 Divisor=16	generated by pow1
c p0= 16	p1= 15	p2= 16	p3= 16	
c number of digits = 5
c linkingVar[0].size = 16, linkingVar[1].size = 15, linkingVar[2].size = 16, linkingVar[3].size = 14, linkingVar[4].size = 1, 
c Pseudo-Boolean Constraints: 1193874 variables and 16729588 clauses
c Sum of weights = 243467130
c A number of soft clauses remained = 32314
c MRWTO encoding for Pseudo-Boolean Constraints
c sizeMax=52308
c No.0 Divisor=16	generated by pow1
c No.1 Divisor=15	generated by pow1
c No.2 Divisor=16	generated by pow1
c No.3 Divisor=16	generated by pow1
c p0= 16	p1= 15	p2= 16	p3= 16	
c number of digits = 5
c linkingVar[0].size = 16, linkingVar[1].size = 15, linkingVar[2].size = 16, linkingVar[3].size = 14, linkingVar[4].size = 1, 
c Pseudo-Boolean Constraints: 1193874 variables and 16729588 clauses
c Sum of weights = 243467130
c A number of soft clauses remained = 32314
c MRWTO encoding for Pseudo-Boolean Constraints
c sizeMax=52308
c No.0 Divisor=16	generated by pow1
c No.1 Divisor=15	generated by pow1
c No.2 Divisor=16	generated by pow1
c No.3 Divisor=16	generated by pow1
c p0= 16	p1= 15	p2= 16	p3= 16	
c number of digits = 5
c linkingVar[0].size = 16, linkingVar[1].size = 15, linkingVar[2].size = 16, linkingVar[3].size = 14, linkingVar[4].size = 1, 
c Pseudo-Boolean Constraints: 1193874 variables and 16729588 clauses
c Sum of weights = 243467130
c A number of soft clauses remained = 32314
c MRWTO encoding for Pseudo-Boolean Constraints
c sizeMax=52308
c No.0 Divisor=16	generated by pow1
c No.1 Divisor=15	generated by pow1
c No.2 Divisor=16	generated by pow1
c No.3 Divisor=16	generated by pow1
c p0= 16	p1= 15	p2= 16	p3= 16	
c number of digits = 5
c linkingVar[0].size = 16, linkingVar[1].size = 15, linkingVar[2].size = 16, linkingVar[3].size = 14, linkingVar[4].size = 1, 
c Pseudo-Boolean Constraints: 1193874 variables and 16729588 clauses
c Sum of weights = 243467130
c A number of soft clauses remained = 32314
c MRWTO encoding for Pseudo-Boolean Constraints
c sizeMax=52308
c No.0 Divisor=16	generated by pow1
c No.1 Divisor=15	generated by pow1
c No.2 Divisor=16	generated by pow1
c No.3 Divisor=16	generated by pow1
c p0= 16	p1= 15	p2= 16	p3= 16	
c number of digits = 5
c linkingVar[0].size = 16, linkingVar[1].size = 15, linkingVar[2].size = 16, linkingVar[3].size = 14, linkingVar[4].size = 1, 
c Pseudo-Boolean Constraints: 1193874 variables and 16729588 clauses
c Sum of weights = 243467130
c A number of soft clauses remained = 32314
c MRWTO encoding for Pseudo-Boolean Constraints
c sizeMax=52308
c No.0 Divisor=16	generated by pow1
c No.1 Divisor=15	generated by pow1
c No.2 Divisor=16	generated by pow1
c No.3 Divisor=16	generated by pow1
c p0= 16	p1= 15	p2= 16	p3= 16	
c number of digits = 5
c linkingVar[0].size = 16, linkingVar[1].size = 15, linkingVar[2].size = 16, linkingVar[3].size = 14, linkingVar[4].size = 1, 
c Pseudo-Boolean Constraints: 1193874 variables and 16729588 clauses
c Sum of weights = 243467130
c A number of soft clauses remained = 32314
c MRWTO encoding for Pseudo-Boolean Constraints
c sizeMax=52308
c No.0 Divisor=16	generated by pow1
c No.1 Divisor=15	generated by pow1
c No.2 Divisor=16	generated by pow1
c No.3 Divisor=16	generated by pow1
c p0= 16	p1= 15	p2= 16	p3= 16	
c number of digits = 5
c linkingVar[0].size = 16, linkingVar[1].size = 15, linkingVar[2].size = 16, linkingVar[3].size = 14, linkingVar[4].size = 1, 
c Pseudo-Boolean Constraints: 1193874 variables and 16729588 clauses
c Sum of weights = 243467130
c A number of soft clauses remained = 32314
c MRWTO encoding for Pseudo-Boolean Constraints
c sizeMax=52308
c No.0 Divisor=16	generated by pow1
c No.1 Divisor=15	generated by pow1
c No.2 Divisor=16	generated by pow1
c No.3 Divisor=16	generated by pow1
c p0= 16	p1= 15	p2= 16	p3= 16	
c number of digits = 5
c linkingVar[0].size = 16, linkingVar[1].size = 15, linkingVar[2].size = 16, linkingVar[3].size = 14, linkingVar[4].size = 1, 
c Pseudo-Boolean Constraints: 1193874 variables and 16729588 clauses
c Sum of weights = 243467130
c A number of soft clauses remained = 32314
c MRWTO encoding for Pseudo-Boolean Constraints
c sizeMax=52308
c No.0 Divisor=16	generated by pow1
c No.1 Divisor=15	generated by pow1
c No.2 Divisor=16	generated by pow1
c No.3 Divisor=16	generated by pow1
c p0= 16	p1= 15	p2= 16	p3= 16	
c number of digits = 5
c linkingVar[0].size = 16, linkingVar[1].size = 15, linkingVar[2].size = 16, linkingVar[3].size = 14, linkingVar[4].size = 1, 
c Pseudo-Boolean Constraints: 1193874 variables and 16729588 clauses
c Sum of weights = 243467130
c A number of soft clauses remained = 32314
c MRWTO encoding for Pseudo-Boolean Constraints
c sizeMax=52308
c No.0 Divisor=16	generated by pow1
c No.1 Divisor=15	generated by pow1
c No.2 Divisor=16	generated by pow1
c No.3 Divisor=16	generated by pow1
c p0= 16	p1= 15	p2= 16	p3= 16	
c number of digits = 5
c linkingVar[0].size = 16, linkingVar[1].size = 15, linkingVar[2].size = 16, linkingVar[3].size = 14, linkingVar[4].size = 1, 
c Pseudo-Boolean Constraints: 1193874 variables and 16729588 clauses
c Sum of weights = 243467130
c A number of soft clauses remained = 32314
c MRWTO encoding for Pseudo-Boolean Constraints
c sizeMax=52308
c No.0 Divisor=16	generated by pow1
c No.1 Divisor=15	generated by pow1
c No.2 Divisor=16	generated by pow1
c No.3 Divisor=16	generated by pow1
c p0= 16	p1= 15	p2= 16	p3= 16	
c number of digits = 5
c linkingVar[0].size = 16, linkingVar[1].size = 15, linkingVar[2].size = 16, linkingVar[3].size = 14, linkingVar[4].size = 1, 
c Pseudo-Boolean Constraints: 1193874 variables and 16729588 clauses
c Sum of weights = 243467130
c A number of soft clauses remained = 32314
c MRWTO encoding for Pseudo-Boolean Constraints
c sizeMax=52308
c No.0 Divisor=16	generated by pow1
c No.1 Divisor=15	generated by pow1
c No.2 Divisor=16	generated by pow1
c No.3 Divisor=16	generated by pow1
c p0= 16	p1= 15	p2= 16	p3= 16	
c number of digits = 5
c linkingVar[0].size = 16, linkingVar[1].size = 15, linkingVar[2].size = 16, linkingVar[3].size = 14, linkingVar[4].size = 1, 
c Pseudo-Boolean Constraints: 1193874 variables and 16729588 clauses
c Sum of weights = 243467130
c A number of soft clauses remained = 32314
c MRWTO encoding for Pseudo-Boolean Constraints
c sizeMax=52308
c No.0 Divisor=16	generated by pow1
c No.1 Divisor=15	generated by pow1
c No.2 Divisor=16	generated by pow1
c No.3 Divisor=16	generated by pow1
c p0= 16	p1= 15	p2= 16	p3= 16	
c number of digits = 5
c linkingVar[0].size = 16, linkingVar[1].size = 15, linkingVar[2].size = 16, linkingVar[3].size = 14, linkingVar[4].size = 1, 
c Pseudo-Boolean Constraints: 1193874 variables and 16729588 clauses
c Sum of weights = 243467130
c A number of soft clauses remained = 32314
c MRWTO encoding for Pseudo-Boolean Constraints
c sizeMax=52308
c No.0 Divisor=16	generated by pow1
c No.1 Divisor=15	generated by pow1
c No.2 Divisor=16	generated by pow1
c No.3 Divisor=16	generated by pow1
c p0= 16	p1= 15	p2= 16	p3= 16	
c number of digits = 5
c linkingVar[0].size = 16, linkingVar[1].size = 15, linkingVar[2].size = 16, linkingVar[3].size = 14, linkingVar[4].size = 1, 
c Pseudo-Boolean Constraints: 1193874 variables and 16729588 clauses
c Sum of weights = 243467130
c A number of soft clauses remained = 32314
c MRWTO encoding for Pseudo-Boolean Constraints
c sizeMax=52308
c No.0 Divisor=16	generated by pow1
c No.1 Divisor=15	generated by pow1
c No.2 Divisor=16	generated by pow1
c No.3 Divisor=16	generated by pow1
c p0= 16	p1= 15	p2= 16	p3= 16	
c number of digits = 5
c linkingVar[0].size = 16, linkingVar[1].size = 15, linkingVar[2].size = 16, linkingVar[3].size = 14, linkingVar[4].size = 1, 
c Pseudo-Boolean Constraints: 1193874 variables and 16729588 clauses
c Sum of weights = 243467130
c A number of soft clauses remained = 32314
c MRWTO encoding for Pseudo-Boolean Constraints
c sizeMax=52308
c No.0 Divisor=16	generated by pow1
c No.1 Divisor=15	generated by pow1
c No.2 Divisor=16	generated by pow1
c No.3 Divisor=16	generated by pow1
c p0= 16	p1= 15	p2= 16	p3= 16	
c number of digits = 5
c linkingVar[0].size = 16, linkingVar[1].size = 15, linkingVar[2].size = 16, linkingVar[3].size = 14, linkingVar[4].size = 1, 
c Pseudo-Boolean Constraints: 1193874 variables and 16729588 clauses
c Sum of weights = 243467130
c A number of soft clauses remained = 32314
c MRWTO encoding for Pseudo-Boolean Constraints
c sizeMax=52308
c No.0 Divisor=16	generated by pow1
c No.1 Divisor=15	generated by pow1
c No.2 Divisor=16	generated by pow1
c No.3 Divisor=16	generated by pow1
c p0= 16	p1= 15	p2= 16	p3= 16	
c number of digits = 5
c linkingVar[0].size = 16, linkingVar[1].size = 15, linkingVar[2].size = 16, linkingVar[3].size = 14, linkingVar[4].size = 1, 
c Pseudo-Boolean Constraints: 1193874 variables and 16729588 clauses
s UNKNOWN
c Search is stopped by a limit (maybe time-limit)
cr positiVarArr: [ | 33(1->2) | 217(1->3) | 401(1->4) | 585(1->5) | 769(1->6) | 953(1->7) | 1137(1->8) | 1321(1->9) | 1505(1->10) | 1689(1->11) | 1873(1->12) | 2057(1->13) | 2241(1->14) | 2425(1->15) | 2609(1->16) | 2793(1->17) | 2977(1->18) | 3161(1->19) | 3345(1->20) | 3529(1->21) | 3713(1->22) | 3897(1->23) | 4081(1->24) | 4265(1->25) | 4449(1->26) | 4633(1->27) | 4817(1->28) | 5001(1->29) | 5185(1->30) | 5369(1->31) | 5553(1->32) | 5737(1->33) | 5921(2->34) | 6105(3->35) | 6289(4->36) | 6473(5->37) | 6657(6->38) | 6841(7->39) | 7025(8->40) | 7209(9->41) | 7393(10->42) | 7577(11->43) | 7761(12->44) | 7945(13->45) | 8129(14->46) | 8313(15->47) | 8497(16->48) | 8681(17->49) | 8865(18->50) | 9049(19->51) | 9233(20->52) | 9417(21->53) | 9601(22->54) | 9785(23->55) | 9969(24->56) | 10153(25->57) | 10337(26->58) | 10521(27->59) | 10705(28->60) | 10889(29->61) | 11073(30->62) | 11257(31->63) | 11441(32->64) | 11625(33->65) | 11809(34->66) | 11993(35->67) | 12177(36->68) | 12361(37->69) | 12545(38->70) | 12729(39->71) | 12913(40->72) | 13097(41->73) | 13281(42->74) | 13465(43->75) | 13649(44->76) | 13833(45->77) | 14017(46->78) | 14201(47->79) | 14385(48->80) | 14569(49->81) | 14753(50->82) | 14937(51->83) | 15121(52->84) | 15305(53->85) | 15489(54->86) | 15673(55->87) | 15857(56->88) | 16041(57->89) | 16225(58->90) | 16409(59->91) | 16593(60->92) | 16777(61->93) | 16961(62->94) | 17145(63->95) | 17329(64->96) | 17513(65->97) | 17697(66->98) | 17881(67->99) | 18065(68->100) | 18249(69->101) | 18433(70->102) | 18617(71->103) | 18801(72->104) | 18985(73->105) | 19169(74->106) | 19353(75->107) | 19537(76->108) | 19721(77->109) | 19905(78->110) | 20089(79->111) | 20273(80->112) | 20457(81->113) | 20641(82->114) | 20825(83->115) | 21009(84->116) | 21193(85->117) | 21377(86->118) | 21561(87->119) | 21745(88->120) | 21929(89->121) | 22113(90->122) | 22297(91->123) | 22481(92->124) | 22665(93->125) | 22849(94->126) | 23033(95->127) | 23217(96->128) | 23401(97->129) | 23585(98->130) | 23769(99->131) | 23953(100->132) | 24137(101->133) | 24321(102->134) | 24505(103->135) | 24689(104->136) | 24873(105->137) | 25057(106->138) | 25241(107->139) | 25425(108->140) | 25609(109->141) | 25793(110->142) | 25977(111->143) | 26161(112->144) | 26345(113->145) | 26529(114->146) | 26713(115->147) | 26897(116->148) | 27081(117->149) | 27265(118->150) | 27449(119->151) | 27633(120->152) | 27665(121->1) | 27847(122->1) | 28029(123->1) | 28211(124->1) | 28393(125->1) | 28575(126->1) | 28757(127->1) | 28939(128->1) | 29121(129->1) | 29303(130->1) | 29485(131->1) | 29667(132->1) | 29849(133->1) | 30031(134->1) | 30213(135->1) | 30395(136->1) | 30577(137->1) | 30759(138->1) | 30941(139->1) | 31123(140->1) | 31305(141->1) | 31487(142->1) | 31669(143->1) | 31851(144->1) | 32033(145->1) | 32215(146->1) | 32397(147->1) | 32579(148->1) | 32761(149->1) | 32943(150->1) | 33125(151->1) | 33307(152->1) | ]
cr the 1-th chain: [ 1->2->34->66->98->130->1 ] (#non-depot=5) {#cumul.=6}
cr the 2-th chain: [ 1->3->35->67->99->131->1 ] (#non-depot=5) {#cumul.=11}
cr the 3-th chain: [ 1->4->36->68->100->132->1 ] (#non-depot=5) {#cumul.=16}
cr the 4-th chain: [ 1->5->37->69->101->133->1 ] (#non-depot=5) {#cumul.=21}
cr the 5-th chain: [ 1->6->38->70->102->134->1 ] (#non-depot=5) {#cumul.=26}
cr the 6-th chain: [ 1->7->39->71->103->135->1 ] (#non-depot=5) {#cumul.=31}
cr the 7-th chain: [ 1->8->40->72->104->136->1 ] (#non-depot=5) {#cumul.=36}
cr the 8-th chain: [ 1->9->41->73->105->137->1 ] (#non-depot=5) {#cumul.=41}
cr the 9-th chain: [ 1->10->42->74->106->138->1 ] (#non-depot=5) {#cumul.=46}
cr the 10-th chain: [ 1->11->43->75->107->139->1 ] (#non-depot=5) {#cumul.=51}
cr the 11-th chain: [ 1->12->44->76->108->140->1 ] (#non-depot=5) {#cumul.=56}
cr the 12-th chain: [ 1->13->45->77->109->141->1 ] (#non-depot=5) {#cumul.=61}
cr the 13-th chain: [ 1->14->46->78->110->142->1 ] (#non-depot=5) {#cumul.=66}
cr the 14-th chain: [ 1->15->47->79->111->143->1 ] (#non-depot=5) {#cumul.=71}
cr the 15-th chain: [ 1->16->48->80->112->144->1 ] (#non-depot=5) {#cumul.=76}
cr the 16-th chain: [ 1->17->49->81->113->145->1 ] (#non-depot=5) {#cumul.=81}
cr the 17-th chain: [ 1->18->50->82->114->146->1 ] (#non-depot=5) {#cumul.=86}
cr the 18-th chain: [ 1->19->51->83->115->147->1 ] (#non-depot=5) {#cumul.=91}
cr the 19-th chain: [ 1->20->52->84->116->148->1 ] (#non-depot=5) {#cumul.=96}
cr the 20-th chain: [ 1->21->53->85->117->149->1 ] (#non-depot=5) {#cumul.=101}
cr the 21-th chain: [ 1->22->54->86->118->150->1 ] (#non-depot=5) {#cumul.=106}
cr the 22-th chain: [ 1->23->55->87->119->151->1 ] (#non-depot=5) {#cumul.=111}
cr the 23-th chain: [ 1->24->56->88->120->152->1 ] (#non-depot=5) {#cumul.=116}
cr the 24-th chain: [ 1->25->57->89->121->1 ] (#non-depot=4) {#cumul.=120}
cr the 25-th chain: [ 1->26->58->90->122->1 ] (#non-depot=4) {#cumul.=124}
cr the 26-th chain: [ 1->27->59->91->123->1 ] (#non-depot=4) {#cumul.=128}
cr the 27-th chain: [ 1->28->60->92->124->1 ] (#non-depot=4) {#cumul.=132}
cr the 28-th chain: [ 1->29->61->93->125->1 ] (#non-depot=4) {#cumul.=136}
cr the 29-th chain: [ 1->30->62->94->126->1 ] (#non-depot=4) {#cumul.=140}
cr the 30-th chain: [ 1->31->63->95->127->1 ] (#non-depot=4) {#cumul.=144}
cr the 31-th chain: [ 1->32->64->96->128->1 ] (#non-depot=4) {#cumul.=148}
cr the 32-th chain: [ 1->33->65->97->129->1 ] (#non-depot=4) {#cumul.=152}
c Latest Answer = 0 by 1 loops
c restarts              : 795
c conflicts             : 124454         (35 /sec)
c decisions             : 55938614       (0.00 % random) (15664 /sec)
c propagations          : 19285311282    (5400310 /sec)
c conflict literals     : 8486074        (7.86 % deleted)
c Memory used           : 35279.00 MB
c CPU time              : 3571.15 s
